c Problem SAT 5+  100 + 1
p cnf 622 2429
1 14 -21 0
1 -14 -21 0
-1 14 -21 0
-1 -14 21 0
2 14 -22 0
2 -14 -22 0
-2 14 -22 0
-2 -14 22 0
3 14 -23 0
3 -14 -23 0
-3 14 -23 0
-3 -14 23 0
4 14 -24 0
4 -14 -24 0
-4 14 -24 0
-4 -14 24 0
5 14 -25 0
5 -14 -25 0
-5 14 -25 0
-5 -14 25 0
6 14 -26 0
6 -14 -26 0
-6 14 -26 0
-6 -14 26 0
7 14 -27 0
7 -14 -27 0
-7 14 -27 0
-7 -14 27 0
8 14 -28 0
8 -14 -28 0
-8 14 -28 0
-8 -14 28 0
9 14 -29 0
9 -14 -29 0
-9 14 -29 0
-9 -14 29 0
10 14 -30 0
10 -14 -30 0
-10 14 -30 0
-10 -14 30 0
11 14 -31 0
11 -14 -31 0
-11 14 -31 0
-11 -14 31 0
12 14 -32 0
12 -14 -32 0
-12 14 -32 0
-12 -14 32 0
13 14 -33 0
13 -14 -33 0
-13 14 -33 0
-13 -14 33 0
1 15 -34 0
1 -15 -34 0
-1 15 -34 0
-1 -15 34 0
2 15 -35 0
2 -15 -35 0
-2 15 -35 0
-2 -15 35 0
3 15 -36 0
3 -15 -36 0
-3 15 -36 0
-3 -15 36 0
4 15 -37 0
4 -15 -37 0
-4 15 -37 0
-4 -15 37 0
5 15 -38 0
5 -15 -38 0
-5 15 -38 0
-5 -15 38 0
6 15 -39 0
6 -15 -39 0
-6 15 -39 0
-6 -15 39 0
7 15 -40 0
7 -15 -40 0
-7 15 -40 0
-7 -15 40 0
8 15 -41 0
8 -15 -41 0
-8 15 -41 0
-8 -15 41 0
9 15 -42 0
9 -15 -42 0
-9 15 -42 0
-9 -15 42 0
10 15 -43 0
10 -15 -43 0
-10 15 -43 0
-10 -15 43 0
11 15 -44 0
11 -15 -44 0
-11 15 -44 0
-11 -15 44 0
12 15 -45 0
12 -15 -45 0
-12 15 -45 0
-12 -15 45 0
13 15 -46 0
13 -15 -46 0
-13 15 -46 0
-13 -15 46 0
1 16 -47 0
1 -16 -47 0
-1 16 -47 0
-1 -16 47 0
2 16 -48 0
2 -16 -48 0
-2 16 -48 0
-2 -16 48 0
3 16 -49 0
3 -16 -49 0
-3 16 -49 0
-3 -16 49 0
4 16 -50 0
4 -16 -50 0
-4 16 -50 0
-4 -16 50 0
5 16 -51 0
5 -16 -51 0
-5 16 -51 0
-5 -16 51 0
6 16 -52 0
6 -16 -52 0
-6 16 -52 0
-6 -16 52 0
7 16 -53 0
7 -16 -53 0
-7 16 -53 0
-7 -16 53 0
8 16 -54 0
8 -16 -54 0
-8 16 -54 0
-8 -16 54 0
9 16 -55 0
9 -16 -55 0
-9 16 -55 0
-9 -16 55 0
10 16 -56 0
10 -16 -56 0
-10 16 -56 0
-10 -16 56 0
11 16 -57 0
11 -16 -57 0
-11 16 -57 0
-11 -16 57 0
12 16 -58 0
12 -16 -58 0
-12 16 -58 0
-12 -16 58 0
13 16 -59 0
13 -16 -59 0
-13 16 -59 0
-13 -16 59 0
1 17 -60 0
1 -17 -60 0
-1 17 -60 0
-1 -17 60 0
2 17 -61 0
2 -17 -61 0
-2 17 -61 0
-2 -17 61 0
3 17 -62 0
3 -17 -62 0
-3 17 -62 0
-3 -17 62 0
4 17 -63 0
4 -17 -63 0
-4 17 -63 0
-4 -17 63 0
5 17 -64 0
5 -17 -64 0
-5 17 -64 0
-5 -17 64 0
6 17 -65 0
6 -17 -65 0
-6 17 -65 0
-6 -17 65 0
7 17 -66 0
7 -17 -66 0
-7 17 -66 0
-7 -17 66 0
8 17 -67 0
8 -17 -67 0
-8 17 -67 0
-8 -17 67 0
9 17 -68 0
9 -17 -68 0
-9 17 -68 0
-9 -17 68 0
10 17 -69 0
10 -17 -69 0
-10 17 -69 0
-10 -17 69 0
11 17 -70 0
11 -17 -70 0
-11 17 -70 0
-11 -17 70 0
12 17 -71 0
12 -17 -71 0
-12 17 -71 0
-12 -17 71 0
13 17 -72 0
13 -17 -72 0
-13 17 -72 0
-13 -17 72 0
1 18 -73 0
1 -18 -73 0
-1 18 -73 0
-1 -18 73 0
2 18 -74 0
2 -18 -74 0
-2 18 -74 0
-2 -18 74 0
3 18 -75 0
3 -18 -75 0
-3 18 -75 0
-3 -18 75 0
4 18 -76 0
4 -18 -76 0
-4 18 -76 0
-4 -18 76 0
5 18 -77 0
5 -18 -77 0
-5 18 -77 0
-5 -18 77 0
6 18 -78 0
6 -18 -78 0
-6 18 -78 0
-6 -18 78 0
7 18 -79 0
7 -18 -79 0
-7 18 -79 0
-7 -18 79 0
8 18 -80 0
8 -18 -80 0
-8 18 -80 0
-8 -18 80 0
9 18 -81 0
9 -18 -81 0
-9 18 -81 0
-9 -18 81 0
10 18 -82 0
10 -18 -82 0
-10 18 -82 0
-10 -18 82 0
11 18 -83 0
11 -18 -83 0
-11 18 -83 0
-11 -18 83 0
12 18 -84 0
12 -18 -84 0
-12 18 -84 0
-12 -18 84 0
13 18 -85 0
13 -18 -85 0
-13 18 -85 0
-13 -18 85 0
1 19 -86 0
1 -19 -86 0
-1 19 -86 0
-1 -19 86 0
2 19 -87 0
2 -19 -87 0
-2 19 -87 0
-2 -19 87 0
3 19 -88 0
3 -19 -88 0
-3 19 -88 0
-3 -19 88 0
4 19 -89 0
4 -19 -89 0
-4 19 -89 0
-4 -19 89 0
5 19 -90 0
5 -19 -90 0
-5 19 -90 0
-5 -19 90 0
6 19 -91 0
6 -19 -91 0
-6 19 -91 0
-6 -19 91 0
7 19 -92 0
7 -19 -92 0
-7 19 -92 0
-7 -19 92 0
8 19 -93 0
8 -19 -93 0
-8 19 -93 0
-8 -19 93 0
9 19 -94 0
9 -19 -94 0
-9 19 -94 0
-9 -19 94 0
10 19 -95 0
10 -19 -95 0
-10 19 -95 0
-10 -19 95 0
11 19 -96 0
11 -19 -96 0
-11 19 -96 0
-11 -19 96 0
12 19 -97 0
12 -19 -97 0
-12 19 -97 0
-12 -19 97 0
13 19 -98 0
13 -19 -98 0
-13 19 -98 0
-13 -19 98 0
1 20 -99 0
1 -20 -99 0
-1 20 -99 0
-1 -20 99 0
2 20 -100 0
2 -20 -100 0
-2 20 -100 0
-2 -20 100 0
3 20 -101 0
3 -20 -101 0
-3 20 -101 0
-3 -20 101 0
4 20 -102 0
4 -20 -102 0
-4 20 -102 0
-4 -20 102 0
5 20 -103 0
5 -20 -103 0
-5 20 -103 0
-5 -20 103 0
6 20 -104 0
6 -20 -104 0
-6 20 -104 0
-6 -20 104 0
7 20 -105 0
7 -20 -105 0
-7 20 -105 0
-7 -20 105 0
8 20 -106 0
8 -20 -106 0
-8 20 -106 0
-8 -20 106 0
9 20 -107 0
9 -20 -107 0
-9 20 -107 0
-9 -20 107 0
10 20 -108 0
10 -20 -108 0
-10 20 -108 0
-10 -20 108 0
11 20 -109 0
11 -20 -109 0
-11 20 -109 0
-11 -20 109 0
12 20 -110 0
12 -20 -110 0
-12 20 -110 0
-12 -20 110 0
13 20 -111 0
13 -20 -111 0
-13 20 -111 0
-13 -20 111 0
22 34 -112 0
22 -34 -112 0
-22 34 -112 0
-22 -34 112 0
22 34 -113 0
22 -34 113 0
-22 34 113 0
-22 -34 -113 0
35 47 -114 0
35 -47 -114 0
-35 47 -114 0
-35 -47 114 0
35 47 -115 0
35 -47 115 0
-35 47 115 0
-35 -47 -115 0
23 115 -116 0
23 -115 -116 0
-23 115 -116 0
-23 -115 116 0
23 115 -117 0
23 -115 117 0
-23 115 117 0
-23 -115 -117 0
114 116 -118 0
114 -116 118 0
-114 116 118 0
-114 -116 -118 0
36 48 -119 0
36 -48 -119 0
-36 48 -119 0
-36 -48 119 0
36 48 -120 0
36 -48 120 0
-36 48 120 0
-36 -48 -120 0
24 120 -121 0
24 -120 -121 0
-24 120 -121 0
-24 -120 121 0
24 120 -122 0
24 -120 122 0
-24 120 122 0
-24 -120 -122 0
119 121 -123 0
119 -121 123 0
-119 121 123 0
-119 -121 -123 0
37 49 -124 0
37 -49 -124 0
-37 49 -124 0
-37 -49 124 0
37 49 -125 0
37 -49 125 0
-37 49 125 0
-37 -49 -125 0
25 125 -126 0
25 -125 -126 0
-25 125 -126 0
-25 -125 126 0
25 125 -127 0
25 -125 127 0
-25 125 127 0
-25 -125 -127 0
124 126 -128 0
124 -126 128 0
-124 126 128 0
-124 -126 -128 0
38 50 -129 0
38 -50 -129 0
-38 50 -129 0
-38 -50 129 0
38 50 -130 0
38 -50 130 0
-38 50 130 0
-38 -50 -130 0
26 130 -131 0
26 -130 -131 0
-26 130 -131 0
-26 -130 131 0
26 130 -132 0
26 -130 132 0
-26 130 132 0
-26 -130 -132 0
129 131 -133 0
129 -131 133 0
-129 131 133 0
-129 -131 -133 0
39 51 -134 0
39 -51 -134 0
-39 51 -134 0
-39 -51 134 0
39 51 -135 0
39 -51 135 0
-39 51 135 0
-39 -51 -135 0
27 135 -136 0
27 -135 -136 0
-27 135 -136 0
-27 -135 136 0
27 135 -137 0
27 -135 137 0
-27 135 137 0
-27 -135 -137 0
134 136 -138 0
134 -136 138 0
-134 136 138 0
-134 -136 -138 0
40 52 -139 0
40 -52 -139 0
-40 52 -139 0
-40 -52 139 0
40 52 -140 0
40 -52 140 0
-40 52 140 0
-40 -52 -140 0
28 140 -141 0
28 -140 -141 0
-28 140 -141 0
-28 -140 141 0
28 140 -142 0
28 -140 142 0
-28 140 142 0
-28 -140 -142 0
139 141 -143 0
139 -141 143 0
-139 141 143 0
-139 -141 -143 0
41 53 -144 0
41 -53 -144 0
-41 53 -144 0
-41 -53 144 0
41 53 -145 0
41 -53 145 0
-41 53 145 0
-41 -53 -145 0
29 145 -146 0
29 -145 -146 0
-29 145 -146 0
-29 -145 146 0
29 145 -147 0
29 -145 147 0
-29 145 147 0
-29 -145 -147 0
144 146 -148 0
144 -146 148 0
-144 146 148 0
-144 -146 -148 0
42 54 -149 0
42 -54 -149 0
-42 54 -149 0
-42 -54 149 0
42 54 -150 0
42 -54 150 0
-42 54 150 0
-42 -54 -150 0
30 150 -151 0
30 -150 -151 0
-30 150 -151 0
-30 -150 151 0
30 150 -152 0
30 -150 152 0
-30 150 152 0
-30 -150 -152 0
149 151 -153 0
149 -151 153 0
-149 151 153 0
-149 -151 -153 0
43 55 -154 0
43 -55 -154 0
-43 55 -154 0
-43 -55 154 0
43 55 -155 0
43 -55 155 0
-43 55 155 0
-43 -55 -155 0
31 155 -156 0
31 -155 -156 0
-31 155 -156 0
-31 -155 156 0
31 155 -157 0
31 -155 157 0
-31 155 157 0
-31 -155 -157 0
154 156 -158 0
154 -156 158 0
-154 156 158 0
-154 -156 -158 0
44 56 -159 0
44 -56 -159 0
-44 56 -159 0
-44 -56 159 0
44 56 -160 0
44 -56 160 0
-44 56 160 0
-44 -56 -160 0
32 160 -161 0
32 -160 -161 0
-32 160 -161 0
-32 -160 161 0
32 160 -162 0
32 -160 162 0
-32 160 162 0
-32 -160 -162 0
159 161 -163 0
159 -161 163 0
-159 161 163 0
-159 -161 -163 0
45 57 -164 0
45 -57 -164 0
-45 57 -164 0
-45 -57 164 0
45 57 -165 0
45 -57 165 0
-45 57 165 0
-45 -57 -165 0
33 165 -166 0
33 -165 -166 0
-33 165 -166 0
-33 -165 166 0
33 165 -167 0
33 -165 167 0
-33 165 167 0
-33 -165 -167 0
164 166 -168 0
164 -166 168 0
-164 166 168 0
-164 -166 -168 0
46 58 -169 0
46 -58 -169 0
-46 58 -169 0
-46 -58 169 0
46 58 -170 0
46 -58 170 0
-46 58 170 0
-46 -58 -170 0
61 73 -171 0
61 -73 -171 0
-61 73 -171 0
-61 -73 171 0
61 73 -172 0
61 -73 172 0
-61 73 172 0
-61 -73 -172 0
74 86 -173 0
74 -86 -173 0
-74 86 -173 0
-74 -86 173 0
74 86 -174 0
74 -86 174 0
-74 86 174 0
-74 -86 -174 0
62 174 -175 0
62 -174 -175 0
-62 174 -175 0
-62 -174 175 0
62 174 -176 0
62 -174 176 0
-62 174 176 0
-62 -174 -176 0
173 175 -177 0
173 -175 177 0
-173 175 177 0
-173 -175 -177 0
75 87 -178 0
75 -87 -178 0
-75 87 -178 0
-75 -87 178 0
75 87 -179 0
75 -87 179 0
-75 87 179 0
-75 -87 -179 0
63 179 -180 0
63 -179 -180 0
-63 179 -180 0
-63 -179 180 0
63 179 -181 0
63 -179 181 0
-63 179 181 0
-63 -179 -181 0
178 180 -182 0
178 -180 182 0
-178 180 182 0
-178 -180 -182 0
76 88 -183 0
76 -88 -183 0
-76 88 -183 0
-76 -88 183 0
76 88 -184 0
76 -88 184 0
-76 88 184 0
-76 -88 -184 0
64 184 -185 0
64 -184 -185 0
-64 184 -185 0
-64 -184 185 0
64 184 -186 0
64 -184 186 0
-64 184 186 0
-64 -184 -186 0
183 185 -187 0
183 -185 187 0
-183 185 187 0
-183 -185 -187 0
77 89 -188 0
77 -89 -188 0
-77 89 -188 0
-77 -89 188 0
77 89 -189 0
77 -89 189 0
-77 89 189 0
-77 -89 -189 0
65 189 -190 0
65 -189 -190 0
-65 189 -190 0
-65 -189 190 0
65 189 -191 0
65 -189 191 0
-65 189 191 0
-65 -189 -191 0
188 190 -192 0
188 -190 192 0
-188 190 192 0
-188 -190 -192 0
78 90 -193 0
78 -90 -193 0
-78 90 -193 0
-78 -90 193 0
78 90 -194 0
78 -90 194 0
-78 90 194 0
-78 -90 -194 0
66 194 -195 0
66 -194 -195 0
-66 194 -195 0
-66 -194 195 0
66 194 -196 0
66 -194 196 0
-66 194 196 0
-66 -194 -196 0
193 195 -197 0
193 -195 197 0
-193 195 197 0
-193 -195 -197 0
79 91 -198 0
79 -91 -198 0
-79 91 -198 0
-79 -91 198 0
79 91 -199 0
79 -91 199 0
-79 91 199 0
-79 -91 -199 0
67 199 -200 0
67 -199 -200 0
-67 199 -200 0
-67 -199 200 0
67 199 -201 0
67 -199 201 0
-67 199 201 0
-67 -199 -201 0
198 200 -202 0
198 -200 202 0
-198 200 202 0
-198 -200 -202 0
80 92 -203 0
80 -92 -203 0
-80 92 -203 0
-80 -92 203 0
80 92 -204 0
80 -92 204 0
-80 92 204 0
-80 -92 -204 0
68 204 -205 0
68 -204 -205 0
-68 204 -205 0
-68 -204 205 0
68 204 -206 0
68 -204 206 0
-68 204 206 0
-68 -204 -206 0
203 205 -207 0
203 -205 207 0
-203 205 207 0
-203 -205 -207 0
81 93 -208 0
81 -93 -208 0
-81 93 -208 0
-81 -93 208 0
81 93 -209 0
81 -93 209 0
-81 93 209 0
-81 -93 -209 0
69 209 -210 0
69 -209 -210 0
-69 209 -210 0
-69 -209 210 0
69 209 -211 0
69 -209 211 0
-69 209 211 0
-69 -209 -211 0
208 210 -212 0
208 -210 212 0
-208 210 212 0
-208 -210 -212 0
82 94 -213 0
82 -94 -213 0
-82 94 -213 0
-82 -94 213 0
82 94 -214 0
82 -94 214 0
-82 94 214 0
-82 -94 -214 0
70 214 -215 0
70 -214 -215 0
-70 214 -215 0
-70 -214 215 0
70 214 -216 0
70 -214 216 0
-70 214 216 0
-70 -214 -216 0
213 215 -217 0
213 -215 217 0
-213 215 217 0
-213 -215 -217 0
83 95 -218 0
83 -95 -218 0
-83 95 -218 0
-83 -95 218 0
83 95 -219 0
83 -95 219 0
-83 95 219 0
-83 -95 -219 0
71 219 -220 0
71 -219 -220 0
-71 219 -220 0
-71 -219 220 0
71 219 -221 0
71 -219 221 0
-71 219 221 0
-71 -219 -221 0
218 220 -222 0
218 -220 222 0
-218 220 222 0
-218 -220 -222 0
84 96 -223 0
84 -96 -223 0
-84 96 -223 0
-84 -96 223 0
84 96 -224 0
84 -96 224 0
-84 96 224 0
-84 -96 -224 0
72 224 -225 0
72 -224 -225 0
-72 224 -225 0
-72 -224 225 0
72 224 -226 0
72 -224 226 0
-72 224 226 0
-72 -224 -226 0
223 225 -227 0
223 -225 227 0
-223 225 227 0
-223 -225 -227 0
85 97 -228 0
85 -97 -228 0
-85 97 -228 0
-85 -97 228 0
85 97 -229 0
85 -97 229 0
-85 97 229 0
-85 -97 -229 0
112 117 -230 0
112 -117 -230 0
-112 117 -230 0
-112 -117 230 0
112 117 -231 0
112 -117 231 0
-112 117 231 0
-112 -117 -231 0
118 122 -232 0
118 -122 -232 0
-118 122 -232 0
-118 -122 232 0
118 122 -233 0
118 -122 233 0
-118 122 233 0
-118 -122 -233 0
123 127 -234 0
123 -127 -234 0
-123 127 -234 0
-123 -127 234 0
123 127 -235 0
123 -127 235 0
-123 127 235 0
-123 -127 -235 0
171 132 -236 0
171 -132 -236 0
-171 132 -236 0
-171 -132 236 0
171 132 -237 0
171 -132 237 0
-171 132 237 0
-171 -132 -237 0
128 237 -238 0
128 -237 -238 0
-128 237 -238 0
-128 -237 238 0
128 237 -239 0
128 -237 239 0
-128 237 239 0
-128 -237 -239 0
236 238 -240 0
236 -238 240 0
-236 238 240 0
-236 -238 -240 0
177 137 -241 0
177 -137 -241 0
-177 137 -241 0
-177 -137 241 0
177 137 -242 0
177 -137 242 0
-177 137 242 0
-177 -137 -242 0
133 242 -243 0
133 -242 -243 0
-133 242 -243 0
-133 -242 243 0
133 242 -244 0
133 -242 244 0
-133 242 244 0
-133 -242 -244 0
241 243 -245 0
241 -243 245 0
-241 243 245 0
-241 -243 -245 0
182 142 -246 0
182 -142 -246 0
-182 142 -246 0
-182 -142 246 0
182 142 -247 0
182 -142 247 0
-182 142 247 0
-182 -142 -247 0
138 247 -248 0
138 -247 -248 0
-138 247 -248 0
-138 -247 248 0
138 247 -249 0
138 -247 249 0
-138 247 249 0
-138 -247 -249 0
246 248 -250 0
246 -248 250 0
-246 248 250 0
-246 -248 -250 0
187 147 -251 0
187 -147 -251 0
-187 147 -251 0
-187 -147 251 0
187 147 -252 0
187 -147 252 0
-187 147 252 0
-187 -147 -252 0
143 252 -253 0
143 -252 -253 0
-143 252 -253 0
-143 -252 253 0
143 252 -254 0
143 -252 254 0
-143 252 254 0
-143 -252 -254 0
251 253 -255 0
251 -253 255 0
-251 253 255 0
-251 -253 -255 0
192 152 -256 0
192 -152 -256 0
-192 152 -256 0
-192 -152 256 0
192 152 -257 0
192 -152 257 0
-192 152 257 0
-192 -152 -257 0
148 257 -258 0
148 -257 -258 0
-148 257 -258 0
-148 -257 258 0
148 257 -259 0
148 -257 259 0
-148 257 259 0
-148 -257 -259 0
256 258 -260 0
256 -258 260 0
-256 258 260 0
-256 -258 -260 0
197 157 -261 0
197 -157 -261 0
-197 157 -261 0
-197 -157 261 0
197 157 -262 0
197 -157 262 0
-197 157 262 0
-197 -157 -262 0
153 262 -263 0
153 -262 -263 0
-153 262 -263 0
-153 -262 263 0
153 262 -264 0
153 -262 264 0
-153 262 264 0
-153 -262 -264 0
261 263 -265 0
261 -263 265 0
-261 263 265 0
-261 -263 -265 0
202 162 -266 0
202 -162 -266 0
-202 162 -266 0
-202 -162 266 0
202 162 -267 0
202 -162 267 0
-202 162 267 0
-202 -162 -267 0
158 267 -268 0
158 -267 -268 0
-158 267 -268 0
-158 -267 268 0
158 267 -269 0
158 -267 269 0
-158 267 269 0
-158 -267 -269 0
266 268 -270 0
266 -268 270 0
-266 268 270 0
-266 -268 -270 0
207 167 -271 0
207 -167 -271 0
-207 167 -271 0
-207 -167 271 0
207 167 -272 0
207 -167 272 0
-207 167 272 0
-207 -167 -272 0
163 272 -273 0
163 -272 -273 0
-163 272 -273 0
-163 -272 273 0
163 272 -274 0
163 -272 274 0
-163 272 274 0
-163 -272 -274 0
271 273 -275 0
271 -273 275 0
-271 273 275 0
-271 -273 -275 0
212 170 -276 0
212 -170 -276 0
-212 170 -276 0
-212 -170 276 0
212 170 -277 0
212 -170 277 0
-212 170 277 0
-212 -170 -277 0
168 277 -278 0
168 -277 -278 0
-168 277 -278 0
-168 -277 278 0
168 277 -279 0
168 -277 279 0
-168 277 279 0
-168 -277 -279 0
276 278 -280 0
276 -278 280 0
-276 278 280 0
-276 -278 -280 0
217 59 -281 0
217 -59 -281 0
-217 59 -281 0
-217 -59 281 0
217 59 -282 0
217 -59 282 0
-217 59 282 0
-217 -59 -282 0
169 282 -283 0
169 -282 -283 0
-169 282 -283 0
-169 -282 283 0
169 282 -284 0
169 -282 284 0
-169 282 284 0
-169 -282 -284 0
281 283 -285 0
281 -283 285 0
-281 283 285 0
-281 -283 -285 0
233 60 -286 0
233 -60 -286 0
-233 60 -286 0
-233 -60 286 0
233 60 -287 0
233 -60 287 0
-233 60 287 0
-233 -60 -287 0
230 287 -288 0
230 -287 -288 0
-230 287 -288 0
-230 -287 288 0
230 287 -289 0
230 -287 289 0
-230 287 289 0
-230 -287 -289 0
286 288 -290 0
286 -288 290 0
-286 288 290 0
-286 -288 -290 0
235 172 -291 0
235 -172 -291 0
-235 172 -291 0
-235 -172 291 0
235 172 -292 0
235 -172 292 0
-235 172 292 0
-235 -172 -292 0
232 292 -293 0
232 -292 -293 0
-232 292 -293 0
-232 -292 293 0
232 292 -294 0
232 -292 294 0
-232 292 294 0
-232 -292 -294 0
291 293 -295 0
291 -293 295 0
-291 293 295 0
-291 -293 -295 0
239 176 -296 0
239 -176 -296 0
-239 176 -296 0
-239 -176 296 0
239 176 -297 0
239 -176 297 0
-239 176 297 0
-239 -176 -297 0
234 297 -298 0
234 -297 -298 0
-234 297 -298 0
-234 -297 298 0
234 297 -299 0
234 -297 299 0
-234 297 299 0
-234 -297 -299 0
296 298 -300 0
296 -298 300 0
-296 298 300 0
-296 -298 -300 0
244 181 -301 0
244 -181 -301 0
-244 181 -301 0
-244 -181 301 0
244 181 -302 0
244 -181 302 0
-244 181 302 0
-244 -181 -302 0
240 302 -303 0
240 -302 -303 0
-240 302 -303 0
-240 -302 303 0
240 302 -304 0
240 -302 304 0
-240 302 304 0
-240 -302 -304 0
301 303 -305 0
301 -303 305 0
-301 303 305 0
-301 -303 -305 0
249 186 -306 0
249 -186 -306 0
-249 186 -306 0
-249 -186 306 0
249 186 -307 0
249 -186 307 0
-249 186 307 0
-249 -186 -307 0
245 307 -308 0
245 -307 -308 0
-245 307 -308 0
-245 -307 308 0
245 307 -309 0
245 -307 309 0
-245 307 309 0
-245 -307 -309 0
306 308 -310 0
306 -308 310 0
-306 308 310 0
-306 -308 -310 0
254 191 -311 0
254 -191 -311 0
-254 191 -311 0
-254 -191 311 0
254 191 -312 0
254 -191 312 0
-254 191 312 0
-254 -191 -312 0
250 312 -313 0
250 -312 -313 0
-250 312 -313 0
-250 -312 313 0
250 312 -314 0
250 -312 314 0
-250 312 314 0
-250 -312 -314 0
311 313 -315 0
311 -313 315 0
-311 313 315 0
-311 -313 -315 0
259 196 -316 0
259 -196 -316 0
-259 196 -316 0
-259 -196 316 0
259 196 -317 0
259 -196 317 0
-259 196 317 0
-259 -196 -317 0
255 317 -318 0
255 -317 -318 0
-255 317 -318 0
-255 -317 318 0
255 317 -319 0
255 -317 319 0
-255 317 319 0
-255 -317 -319 0
316 318 -320 0
316 -318 320 0
-316 318 320 0
-316 -318 -320 0
264 201 -321 0
264 -201 -321 0
-264 201 -321 0
-264 -201 321 0
264 201 -322 0
264 -201 322 0
-264 201 322 0
-264 -201 -322 0
260 322 -323 0
260 -322 -323 0
-260 322 -323 0
-260 -322 323 0
260 322 -324 0
260 -322 324 0
-260 322 324 0
-260 -322 -324 0
321 323 -325 0
321 -323 325 0
-321 323 325 0
-321 -323 -325 0
269 206 -326 0
269 -206 -326 0
-269 206 -326 0
-269 -206 326 0
269 206 -327 0
269 -206 327 0
-269 206 327 0
-269 -206 -327 0
265 327 -328 0
265 -327 -328 0
-265 327 -328 0
-265 -327 328 0
265 327 -329 0
265 -327 329 0
-265 327 329 0
-265 -327 -329 0
326 328 -330 0
326 -328 330 0
-326 328 330 0
-326 -328 -330 0
274 211 -331 0
274 -211 -331 0
-274 211 -331 0
-274 -211 331 0
274 211 -332 0
274 -211 332 0
-274 211 332 0
-274 -211 -332 0
270 332 -333 0
270 -332 -333 0
-270 332 -333 0
-270 -332 333 0
270 332 -334 0
270 -332 334 0
-270 332 334 0
-270 -332 -334 0
331 333 -335 0
331 -333 335 0
-331 333 335 0
-331 -333 -335 0
279 216 -336 0
279 -216 -336 0
-279 216 -336 0
-279 -216 336 0
279 216 -337 0
279 -216 337 0
-279 216 337 0
-279 -216 -337 0
275 337 -338 0
275 -337 -338 0
-275 337 -338 0
-275 -337 338 0
275 337 -339 0
275 -337 339 0
-275 337 339 0
-275 -337 -339 0
336 338 -340 0
336 -338 340 0
-336 338 340 0
-336 -338 -340 0
284 221 -341 0
284 -221 -341 0
-284 221 -341 0
-284 -221 341 0
284 221 -342 0
284 -221 342 0
-284 221 342 0
-284 -221 -342 0
280 342 -343 0
280 -342 -343 0
-280 342 -343 0
-280 -342 343 0
280 342 -344 0
280 -342 344 0
-280 342 344 0
-280 -342 -344 0
341 343 -345 0
341 -343 345 0
-341 343 345 0
-341 -343 -345 0
222 226 -346 0
222 -226 -346 0
-222 226 -346 0
-222 -226 346 0
222 226 -347 0
222 -226 347 0
-222 226 347 0
-222 -226 -347 0
285 347 -348 0
285 -347 -348 0
-285 347 -348 0
-285 -347 348 0
285 347 -349 0
285 -347 349 0
-285 347 349 0
-285 -347 -349 0
346 348 -350 0
346 -348 350 0
-346 348 350 0
-346 -348 -350 0
227 229 -351 0
227 -229 -351 0
-227 229 -351 0
-227 -229 351 0
227 229 -352 0
227 -229 352 0
-227 229 352 0
-227 -229 -352 0
228 98 -353 0
228 -98 -353 0
-228 98 -353 0
-228 -98 353 0
228 98 -354 0
228 -98 354 0
-228 98 354 0
-228 -98 -354 0
290 294 -355 0
290 -294 -355 0
-290 294 -355 0
-290 -294 355 0
290 294 -356 0
290 -294 356 0
-290 294 356 0
-290 -294 -356 0
295 299 -357 0
295 -299 -357 0
-295 299 -357 0
-295 -299 357 0
295 299 -358 0
295 -299 358 0
-295 299 358 0
-295 -299 -358 0
304 99 -359 0
304 -99 -359 0
-304 99 -359 0
-304 -99 359 0
304 99 -360 0
304 -99 360 0
-304 99 360 0
-304 -99 -360 0
300 360 -361 0
300 -360 -361 0
-300 360 -361 0
-300 -360 361 0
300 360 -362 0
300 -360 362 0
-300 360 362 0
-300 -360 -362 0
359 361 -363 0
359 -361 363 0
-359 361 363 0
-359 -361 -363 0
309 100 -364 0
309 -100 -364 0
-309 100 -364 0
-309 -100 364 0
309 100 -365 0
309 -100 365 0
-309 100 365 0
-309 -100 -365 0
305 365 -366 0
305 -365 -366 0
-305 365 -366 0
-305 -365 366 0
305 365 -367 0
305 -365 367 0
-305 365 367 0
-305 -365 -367 0
364 366 -368 0
364 -366 368 0
-364 366 368 0
-364 -366 -368 0
314 101 -369 0
314 -101 -369 0
-314 101 -369 0
-314 -101 369 0
314 101 -370 0
314 -101 370 0
-314 101 370 0
-314 -101 -370 0
310 370 -371 0
310 -370 -371 0
-310 370 -371 0
-310 -370 371 0
310 370 -372 0
310 -370 372 0
-310 370 372 0
-310 -370 -372 0
369 371 -373 0
369 -371 373 0
-369 371 373 0
-369 -371 -373 0
319 102 -374 0
319 -102 -374 0
-319 102 -374 0
-319 -102 374 0
319 102 -375 0
319 -102 375 0
-319 102 375 0
-319 -102 -375 0
315 375 -376 0
315 -375 -376 0
-315 375 -376 0
-315 -375 376 0
315 375 -377 0
315 -375 377 0
-315 375 377 0
-315 -375 -377 0
374 376 -378 0
374 -376 378 0
-374 376 378 0
-374 -376 -378 0
324 103 -379 0
324 -103 -379 0
-324 103 -379 0
-324 -103 379 0
324 103 -380 0
324 -103 380 0
-324 103 380 0
-324 -103 -380 0
320 380 -381 0
320 -380 -381 0
-320 380 -381 0
-320 -380 381 0
320 380 -382 0
320 -380 382 0
-320 380 382 0
-320 -380 -382 0
379 381 -383 0
379 -381 383 0
-379 381 383 0
-379 -381 -383 0
329 104 -384 0
329 -104 -384 0
-329 104 -384 0
-329 -104 384 0
329 104 -385 0
329 -104 385 0
-329 104 385 0
-329 -104 -385 0
325 385 -386 0
325 -385 -386 0
-325 385 -386 0
-325 -385 386 0
325 385 -387 0
325 -385 387 0
-325 385 387 0
-325 -385 -387 0
384 386 -388 0
384 -386 388 0
-384 386 388 0
-384 -386 -388 0
334 105 -389 0
334 -105 -389 0
-334 105 -389 0
-334 -105 389 0
334 105 -390 0
334 -105 390 0
-334 105 390 0
-334 -105 -390 0
330 390 -391 0
330 -390 -391 0
-330 390 -391 0
-330 -390 391 0
330 390 -392 0
330 -390 392 0
-330 390 392 0
-330 -390 -392 0
389 391 -393 0
389 -391 393 0
-389 391 393 0
-389 -391 -393 0
339 106 -394 0
339 -106 -394 0
-339 106 -394 0
-339 -106 394 0
339 106 -395 0
339 -106 395 0
-339 106 395 0
-339 -106 -395 0
335 395 -396 0
335 -395 -396 0
-335 395 -396 0
-335 -395 396 0
335 395 -397 0
335 -395 397 0
-335 395 397 0
-335 -395 -397 0
394 396 -398 0
394 -396 398 0
-394 396 398 0
-394 -396 -398 0
344 107 -399 0
344 -107 -399 0
-344 107 -399 0
-344 -107 399 0
344 107 -400 0
344 -107 400 0
-344 107 400 0
-344 -107 -400 0
340 400 -401 0
340 -400 -401 0
-340 400 -401 0
-340 -400 401 0
340 400 -402 0
340 -400 402 0
-340 400 402 0
-340 -400 -402 0
399 401 -403 0
399 -401 403 0
-399 401 403 0
-399 -401 -403 0
349 108 -404 0
349 -108 -404 0
-349 108 -404 0
-349 -108 404 0
349 108 -405 0
349 -108 405 0
-349 108 405 0
-349 -108 -405 0
345 405 -406 0
345 -405 -406 0
-345 405 -406 0
-345 -405 406 0
345 405 -407 0
345 -405 407 0
-345 405 407 0
-345 -405 -407 0
404 406 -408 0
404 -406 408 0
-404 406 408 0
-404 -406 -408 0
352 109 -409 0
352 -109 -409 0
-352 109 -409 0
-352 -109 409 0
352 109 -410 0
352 -109 410 0
-352 109 410 0
-352 -109 -410 0
350 410 -411 0
350 -410 -411 0
-350 410 -411 0
-350 -410 411 0
350 410 -412 0
350 -410 412 0
-350 410 412 0
-350 -410 -412 0
409 411 -413 0
409 -411 413 0
-409 411 413 0
-409 -411 -413 0
354 110 -414 0
354 -110 -414 0
-354 110 -414 0
-354 -110 414 0
354 110 -415 0
354 -110 415 0
-354 110 415 0
-354 -110 -415 0
351 415 -416 0
351 -415 -416 0
-351 415 -416 0
-351 -415 416 0
351 415 -417 0
351 -415 417 0
-351 415 417 0
-351 -415 -417 0
414 416 -418 0
414 -416 418 0
-414 416 418 0
-414 -416 -418 0
353 111 -419 0
353 -111 -419 0
-353 111 -419 0
-353 -111 419 0
353 111 -420 0
353 -111 420 0
-353 111 420 0
-353 -111 -420 0
355 358 -421 0
355 -358 421 0
-355 358 421 0
-355 -358 -421 0
355 358 -422 0
355 -358 -422 0
-355 358 -422 0
-355 -358 422 0
355 358 -423 0
355 -358 423 0
-355 358 423 0
-355 -358 423 0
357 362 -424 0
357 -362 424 0
-357 362 424 0
-357 -362 -424 0
357 362 -425 0
357 -362 -425 0
-357 362 -425 0
-357 -362 425 0
357 362 -426 0
357 -362 426 0
-357 362 426 0
-357 -362 426 0
363 367 -427 0
363 -367 427 0
-363 367 427 0
-363 -367 -427 0
363 367 -428 0
363 -367 -428 0
-363 367 -428 0
-363 -367 428 0
363 367 -429 0
363 -367 429 0
-363 367 429 0
-363 -367 429 0
368 372 -430 0
368 -372 430 0
-368 372 430 0
-368 -372 -430 0
368 372 -431 0
368 -372 -431 0
-368 372 -431 0
-368 -372 431 0
368 372 -432 0
368 -372 432 0
-368 372 432 0
-368 -372 432 0
373 377 -433 0
373 -377 433 0
-373 377 433 0
-373 -377 -433 0
373 377 -434 0
373 -377 -434 0
-373 377 -434 0
-373 -377 434 0
373 377 -435 0
373 -377 435 0
-373 377 435 0
-373 -377 435 0
378 382 -436 0
378 -382 436 0
-378 382 436 0
-378 -382 -436 0
378 382 -437 0
378 -382 -437 0
-378 382 -437 0
-378 -382 437 0
378 382 -438 0
378 -382 438 0
-378 382 438 0
-378 -382 438 0
383 387 -439 0
383 -387 439 0
-383 387 439 0
-383 -387 -439 0
383 387 -440 0
383 -387 -440 0
-383 387 -440 0
-383 -387 440 0
383 387 -441 0
383 -387 441 0
-383 387 441 0
-383 -387 441 0
388 392 -442 0
388 -392 442 0
-388 392 442 0
-388 -392 -442 0
388 392 -443 0
388 -392 -443 0
-388 392 -443 0
-388 -392 443 0
388 392 -444 0
388 -392 444 0
-388 392 444 0
-388 -392 444 0
393 397 -445 0
393 -397 445 0
-393 397 445 0
-393 -397 -445 0
393 397 -446 0
393 -397 -446 0
-393 397 -446 0
-393 -397 446 0
393 397 -447 0
393 -397 447 0
-393 397 447 0
-393 -397 447 0
398 402 -448 0
398 -402 448 0
-398 402 448 0
-398 -402 -448 0
398 402 -449 0
398 -402 -449 0
-398 402 -449 0
-398 -402 449 0
398 402 -450 0
398 -402 450 0
-398 402 450 0
-398 -402 450 0
403 407 -451 0
403 -407 451 0
-403 407 451 0
-403 -407 -451 0
403 407 -452 0
403 -407 -452 0
-403 407 -452 0
-403 -407 452 0
403 407 -453 0
403 -407 453 0
-403 407 453 0
-403 -407 453 0
408 412 -454 0
408 -412 454 0
-408 412 454 0
-408 -412 -454 0
408 412 -455 0
408 -412 -455 0
-408 412 -455 0
-408 -412 455 0
408 412 -456 0
408 -412 456 0
-408 412 456 0
-408 -412 456 0
413 417 -457 0
413 -417 457 0
-413 417 457 0
-413 -417 -457 0
413 417 -458 0
413 -417 -458 0
-413 417 -458 0
-413 -417 458 0
413 417 -459 0
413 -417 459 0
-413 417 459 0
-413 -417 459 0
418 420 -460 0
418 -420 460 0
-418 420 460 0
-418 -420 -460 0
418 420 -461 0
418 -420 -461 0
-418 420 -461 0
-418 -420 461 0
418 420 -462 0
418 -420 462 0
-418 420 462 0
-418 -420 462 0
21 113 -463 0
21 -113 463 0
-21 -113 -463 0
-21 113 463 0
113 21 -464 0
113 -21 -464 0
-113 21 -464 0
-113 -21 464 0
231 289 -465 0
231 -289 465 0
-231 -289 -465 0
-231 289 465 0
289 231 -466 0
289 -231 -466 0
-289 231 -466 0
-289 -231 466 0
356 421 -467 0
356 -421 467 0
-356 -421 -467 0
-356 421 467 0
422 423 -468 0
422 -423 468 0
-422 423 468 0
-422 -423 468 0
422 356 -469 0
422 -356 469 0
-422 356 469 0
-422 -356 469 0
468 469 -470 0
468 -469 -470 0
-468 469 -470 0
-468 -469 470 0
422 423 -471 0
422 -423 471 0
-422 423 471 0
-422 -423 471 0
471 422 -472 0
471 -422 -472 0
-471 422 -472 0
-471 -422 472 0
425 427 -473 0
425 -427 473 0
-425 -427 -473 0
-425 427 473 0
426 427 -474 0
426 -427 474 0
-426 -427 -474 0
-426 427 474 0
428 429 -475 0
428 -429 475 0
-428 429 475 0
-428 -429 475 0
428 426 -476 0
428 -426 476 0
-428 426 476 0
-428 -426 476 0
475 476 -477 0
475 -476 -477 0
-475 476 -477 0
-475 -476 477 0
428 429 -478 0
428 -429 478 0
-428 429 478 0
-428 -429 478 0
428 425 -479 0
428 -425 479 0
-428 425 479 0
-428 -425 479 0
478 479 -480 0
478 -479 -480 0
-478 479 -480 0
-478 -479 480 0
431 433 -481 0
431 -433 481 0
-431 -433 -481 0
-431 433 481 0
432 433 -482 0
432 -433 482 0
-432 -433 -482 0
-432 433 482 0
434 435 -483 0
434 -435 483 0
-434 435 483 0
-434 -435 483 0
434 432 -484 0
434 -432 484 0
-434 432 484 0
-434 -432 484 0
483 484 -485 0
483 -484 -485 0
-483 484 -485 0
-483 -484 485 0
434 435 -486 0
434 -435 486 0
-434 435 486 0
-434 -435 486 0
434 431 -487 0
434 -431 487 0
-434 431 487 0
-434 -431 487 0
486 487 -488 0
486 -487 -488 0
-486 487 -488 0
-486 -487 488 0
437 439 -489 0
437 -439 489 0
-437 -439 -489 0
-437 439 489 0
438 439 -490 0
438 -439 490 0
-438 -439 -490 0
-438 439 490 0
440 441 -491 0
440 -441 491 0
-440 441 491 0
-440 -441 491 0
440 438 -492 0
440 -438 492 0
-440 438 492 0
-440 -438 492 0
491 492 -493 0
491 -492 -493 0
-491 492 -493 0
-491 -492 493 0
440 441 -494 0
440 -441 494 0
-440 441 494 0
-440 -441 494 0
440 437 -495 0
440 -437 495 0
-440 437 495 0
-440 -437 495 0
494 495 -496 0
494 -495 -496 0
-494 495 -496 0
-494 -495 496 0
443 445 -497 0
443 -445 497 0
-443 -445 -497 0
-443 445 497 0
444 445 -498 0
444 -445 498 0
-444 -445 -498 0
-444 445 498 0
446 447 -499 0
446 -447 499 0
-446 447 499 0
-446 -447 499 0
446 444 -500 0
446 -444 500 0
-446 444 500 0
-446 -444 500 0
499 500 -501 0
499 -500 -501 0
-499 500 -501 0
-499 -500 501 0
446 447 -502 0
446 -447 502 0
-446 447 502 0
-446 -447 502 0
446 443 -503 0
446 -443 503 0
-446 443 503 0
-446 -443 503 0
502 503 -504 0
502 -503 -504 0
-502 503 -504 0
-502 -503 504 0
449 451 -505 0
449 -451 505 0
-449 -451 -505 0
-449 451 505 0
450 451 -506 0
450 -451 506 0
-450 -451 -506 0
-450 451 506 0
452 453 -507 0
452 -453 507 0
-452 453 507 0
-452 -453 507 0
452 450 -508 0
452 -450 508 0
-452 450 508 0
-452 -450 508 0
507 508 -509 0
507 -508 -509 0
-507 508 -509 0
-507 -508 509 0
452 453 -510 0
452 -453 510 0
-452 453 510 0
-452 -453 510 0
452 449 -511 0
452 -449 511 0
-452 449 511 0
-452 -449 511 0
510 511 -512 0
510 -511 -512 0
-510 511 -512 0
-510 -511 512 0
455 457 -513 0
455 -457 513 0
-455 -457 -513 0
-455 457 513 0
456 457 -514 0
456 -457 514 0
-456 -457 -514 0
-456 457 514 0
458 459 -515 0
458 -459 515 0
-458 459 515 0
-458 -459 515 0
458 456 -516 0
458 -456 516 0
-458 456 516 0
-458 -456 516 0
515 516 -517 0
515 -516 -517 0
-515 516 -517 0
-515 -516 517 0
458 459 -518 0
458 -459 518 0
-458 459 518 0
-458 -459 518 0
458 455 -519 0
458 -455 519 0
-458 455 519 0
-458 -455 519 0
518 519 -520 0
518 -519 -520 0
-518 519 -520 0
-518 -519 520 0
461 419 -521 0
461 -419 521 0
-461 -419 -521 0
-461 419 521 0
462 419 -522 0
462 -419 522 0
-462 -419 -522 0
-462 419 522 0
419 462 -523 0
419 -462 -523 0
-419 462 -523 0
-419 -462 523 0
419 461 -524 0
419 -461 -524 0
-419 461 -524 0
-419 -461 524 0
464 231 -525 0
464 -231 525 0
-464 -231 -525 0
-464 231 525 0
464 289 -526 0
464 -289 526 0
-464 465 -526 0
-464 -465 526 0
466 464 -527 0
466 -464 -527 0
-466 464 -527 0
-466 -464 527 0
472 424 -528 0
472 -424 528 0
-472 -424 -528 0
-472 424 528 0
472 473 -529 0
472 -473 529 0
-472 474 -529 0
-472 -474 529 0
470 424 -530 0
470 -424 530 0
-470 -424 -530 0
-470 424 530 0
470 473 -531 0
470 -473 531 0
-470 474 -531 0
-470 -474 531 0
480 477 -532 0
480 -477 532 0
-480 477 532 0
-480 -477 532 0
480 470 -533 0
480 -470 533 0
-480 470 533 0
-480 -470 533 0
532 533 -534 0
532 -533 -534 0
-532 533 -534 0
-532 -533 534 0
480 477 -535 0
480 -477 535 0
-480 477 535 0
-480 -477 535 0
480 472 -536 0
480 -472 536 0
-480 472 536 0
-480 -472 536 0
535 536 -537 0
535 -536 -537 0
-535 536 -537 0
-535 -536 537 0
488 436 -538 0
488 -436 538 0
-488 -436 -538 0
-488 436 538 0
488 489 -539 0
488 -489 539 0
-488 490 -539 0
-488 -490 539 0
485 436 -540 0
485 -436 540 0
-485 -436 -540 0
-485 436 540 0
485 489 -541 0
485 -489 541 0
-485 490 -541 0
-485 -490 541 0
496 493 -542 0
496 -493 542 0
-496 493 542 0
-496 -493 542 0
496 485 -543 0
496 -485 543 0
-496 485 543 0
-496 -485 543 0
542 543 -544 0
542 -543 -544 0
-542 543 -544 0
-542 -543 544 0
496 493 -545 0
496 -493 545 0
-496 493 545 0
-496 -493 545 0
496 488 -546 0
496 -488 546 0
-496 488 546 0
-496 -488 546 0
545 546 -547 0
545 -546 -547 0
-545 546 -547 0
-545 -546 547 0
504 448 -548 0
504 -448 548 0
-504 -448 -548 0
-504 448 548 0
504 505 -549 0
504 -505 549 0
-504 506 -549 0
-504 -506 549 0
501 448 -550 0
501 -448 550 0
-501 -448 -550 0
-501 448 550 0
501 505 -551 0
501 -505 551 0
-501 506 -551 0
-501 -506 551 0
512 509 -552 0
512 -509 552 0
-512 509 552 0
-512 -509 552 0
512 501 -553 0
512 -501 553 0
-512 501 553 0
-512 -501 553 0
552 553 -554 0
552 -553 -554 0
-552 553 -554 0
-552 -553 554 0
512 509 -555 0
512 -509 555 0
-512 509 555 0
-512 -509 555 0
512 504 -556 0
512 -504 556 0
-512 504 556 0
-512 -504 556 0
555 556 -557 0
555 -556 -557 0
-555 556 -557 0
-555 -556 557 0
520 460 -558 0
520 -460 558 0
-520 -460 -558 0
-520 460 558 0
520 521 -559 0
520 -521 559 0
-520 522 -559 0
-520 -522 559 0
517 460 -560 0
517 -460 560 0
-517 -460 -560 0
-517 460 560 0
517 521 -561 0
517 -521 561 0
-517 522 -561 0
-517 -522 561 0
524 523 -562 0
524 -523 562 0
-524 523 562 0
-524 -523 562 0
524 517 -563 0
524 -517 563 0
-524 517 563 0
-524 -517 563 0
562 563 -564 0
562 -563 -564 0
-562 563 -564 0
-562 -563 564 0
524 523 -565 0
524 -523 565 0
-524 523 565 0
-524 -523 565 0
524 520 -566 0
524 -520 566 0
-524 520 566 0
-524 -520 566 0
565 566 -567 0
565 -566 -567 0
-565 566 -567 0
-565 -566 567 0
527 356 -568 0
527 -356 568 0
-527 -356 -568 0
-527 356 568 0
527 421 -569 0
527 -421 569 0
-527 467 -569 0
-527 -467 569 0
527 528 -570 0
527 -528 570 0
-527 530 -570 0
-527 -530 570 0
527 529 -571 0
527 -529 571 0
-527 531 -571 0
-527 -531 571 0
537 534 -572 0
537 -534 572 0
-537 534 572 0
-537 -534 572 0
537 527 -573 0
537 -527 573 0
-537 527 573 0
-537 -527 573 0
572 573 -574 0
572 -573 -574 0
-572 573 -574 0
-572 -573 574 0
537 534 -575 0
537 -534 575 0
-537 534 575 0
-537 -534 575 0
575 537 -576 0
575 -537 -576 0
-575 537 -576 0
-575 -537 576 0
547 442 -577 0
547 -442 577 0
-547 -442 -577 0
-547 442 577 0
547 497 -578 0
547 -497 578 0
-547 498 -578 0
-547 -498 578 0
547 548 -579 0
547 -548 579 0
-547 550 -579 0
-547 -550 579 0
547 549 -580 0
547 -549 580 0
-547 551 -580 0
-547 -551 580 0
544 442 -581 0
544 -442 581 0
-544 -442 -581 0
-544 442 581 0
544 497 -582 0
544 -497 582 0
-544 498 -582 0
-544 -498 582 0
544 548 -583 0
544 -548 583 0
-544 550 -583 0
-544 -550 583 0
544 549 -584 0
544 -549 584 0
-544 551 -584 0
-544 -551 584 0
557 554 -585 0
557 -554 585 0
-557 554 585 0
-557 -554 585 0
557 544 -586 0
557 -544 586 0
-557 544 586 0
-557 -544 586 0
585 586 -587 0
585 -586 -587 0
-585 586 -587 0
-585 -586 587 0
557 554 -588 0
557 -554 588 0
-557 554 588 0
-557 -554 588 0
557 547 -589 0
557 -547 589 0
-557 547 589 0
-557 -547 589 0
588 589 -590 0
588 -589 -590 0
-588 589 -590 0
-588 -589 590 0
576 430 -591 0
576 -430 591 0
-576 -430 -591 0
-576 430 591 0
576 481 -592 0
576 -481 592 0
-576 482 -592 0
-576 -482 592 0
576 538 -593 0
576 -538 593 0
-576 540 -593 0
-576 -540 593 0
576 539 -594 0
576 -539 594 0
-576 541 -594 0
-576 -541 594 0
576 577 -595 0
576 -577 595 0
-576 581 -595 0
-576 -581 595 0
576 578 -596 0
576 -578 596 0
-576 582 -596 0
-576 -582 596 0
576 579 -597 0
576 -579 597 0
-576 583 -597 0
-576 -583 597 0
576 580 -598 0
576 -580 598 0
-576 584 -598 0
-576 -584 598 0
574 430 -599 0
574 -430 599 0
-574 -430 -599 0
-574 430 599 0
574 481 -600 0
574 -481 600 0
-574 482 -600 0
-574 -482 600 0
574 538 -601 0
574 -538 601 0
-574 540 -601 0
-574 -540 601 0
574 539 -602 0
574 -539 602 0
-574 541 -602 0
-574 -541 602 0
574 577 -603 0
574 -577 603 0
-574 581 -603 0
-574 -581 603 0
574 578 -604 0
574 -578 604 0
-574 582 -604 0
-574 -582 604 0
574 579 -605 0
574 -579 605 0
-574 583 -605 0
-574 -583 605 0
574 580 -606 0
574 -580 606 0
-574 584 -606 0
-574 -584 606 0
590 587 -607 0
590 -587 607 0
-590 587 607 0
-590 -587 607 0
590 574 -608 0
590 -574 608 0
-590 574 608 0
-590 -574 608 0
607 608 -609 0
607 -608 -609 0
-607 608 -609 0
-607 -608 609 0
590 587 -610 0
590 -587 610 0
-590 587 610 0
-590 -587 610 0
590 576 -611 0
590 -576 611 0
-590 576 611 0
-590 -576 611 0
610 611 -612 0
610 -611 -612 0
-610 611 -612 0
-610 -611 612 0
612 454 -613 0
612 -454 613 0
-612 -454 -613 0
-612 454 613 0
612 513 -614 0
612 -513 614 0
-612 514 -614 0
-612 -514 614 0
612 558 -615 0
612 -558 615 0
-612 560 -615 0
-612 -560 615 0
612 559 -616 0
612 -559 616 0
-612 561 -616 0
-612 -561 616 0
612 567 -617 0
612 -567 617 0
-612 564 -617 0
-612 -564 617 0
609 454 -618 0
609 -454 618 0
-609 -454 -618 0
-609 454 618 0
609 513 -619 0
609 -513 619 0
-609 514 -619 0
-609 -514 619 0
609 558 -620 0
609 -558 620 0
-609 560 -620 0
-609 -560 620 0
609 559 -621 0
609 -559 621 0
-609 561 -621 0
-609 -561 621 0
609 567 -622 0
609 -567 622 0
-609 564 -622 0
-609 -564 622 0
21 0
-113 0
-231 0
289 0
356 0
-421 0
528 0
529 0
591 0
592 0
593 0
-594 0
-595 0
596 0
-597 0
-598 0
-613 0
-614 0
-615 0
-616 0
-617 0
